NAME : XML100_3145_08
DIMENSION : 101
NB_CLUSTERS : 36
CLUSTERING_ALG : KMeans
CLUSTERING_PARAMS : k(44)
CLUSTERS
1 0
2 10 17 21
3 42 56 64 80
4 7 45
5 55 60 77
6 53 95
7 49 90
8 19 63
9 16 40 44 52 59 79 81
10 2 62 75 94 100
11 27 61 89 98
12 11 20 22 29 87
13 6 54 86
14 1 5 35 51 74
15 4 37 66
16 69 78
17 48 76 83
18 33 92
19 13 28
20 41 67 96
21 14 70
22 24 73
23 25 57
24 36 47
25 8 23 68
26 30 91
27 34 58 82
28 32 88
29 50 97
30 9 15
31 12 31 99
32 3 46 72
33 26 84
34 39 71 93
35 18 38 43
36 65 85
EOF